db/data/82112621414937193213156954172313829402.z3.out
sat
-------------------
569.949993305
